32      4       
12      19      12      16      
0       0       0       0       0       3       2       4       6       
4       4       9       3       1       2       5       3       
10      6       8       1       1       2       10      7       
9       1       7       1       1       2       10      7       
1       5       15      8       1       3       10      9       8       
6       1       1       2       7       1       7       
5       3       1       8       7       2       9       8       
7       6       5       1       1       1       11      
7       3       1       2       6       1       11      
7       8       17      1       6       1       11      
8       4       3       8       1       2       14      12      
5       4       8       12      9       1       13      
6       1       3       2       6       2       16      15      
2       1       1       4       1       2       17      16      
2       2       8       1       9       2       23      17      
8       4       1       2       1       4       23      21      20      19      
9       1       1       1       5       1       18      
3       1       8       1       6       3       21      20      19      
10      1       1       1       1       2       24      22      
5       1       7       1       6       3       29      25      24      
2       6       3       3       4       3       29      25      24      
4       6       4       5       9       3       29      28      25      
1       1       6       1       5       2       29      24      
7       3       2       1       1       3       28      27      26      
4       5       5       1       1       2       27      26      
3       1       2       1       1       2       31      30      
10      1       5       1       1       2       31      30      
10      1       1       1       7       2       31      30      
5       1       2       2       1       2       31      30      
5       5       1       8       13      1       32      
4       3       7       6       1       1       32      
0       0       0       0       0       0       
